Version identifier: 22.1.1.0 | 2022-11-28 | 9160aff4d
CPXPARAM_ClockType                               1
CPXPARAM_Read_DataCheck                          1
CPXPARAM_Threads                                 1
CPXPARAM_TimeLimit                               7200
CPXPARAM_MIP_Tolerances_AbsMIPGap                0
CPXPARAM_MIP_Tolerances_MIPGap                   0
CPXPARAM_MIP_Tolerances_Integrality              0
Tried aggregator 4 times.
MIP Presolve eliminated 184997 rows and 5842 columns.
MIP Presolve modified 206 coefficients.
Aggregator did 1979 substitutions.
Reduced MIP has 5400 rows, 4329 columns, and 23977 nonzeros.
Reduced MIP has 4329 binaries, 0 generals, 0 SOSs, and 0 indicators.
Presolve time = 0.35 sec. (226.90 ticks)
Found incumbent of value 0.000000 after 0.46 sec. (292.81 ticks)
Probing fixed 472 vars, tightened 0 bounds.
Probing changed sense of 24 constraints.
Probing time = 0.08 sec. (49.36 ticks)
Cover probing fixed 0 vars, tightened 118 bounds.
Tried aggregator 3 times.
MIP Presolve eliminated 601 rows and 474 columns.
MIP Presolve modified 70 coefficients.
Aggregator did 120 substitutions.
Reduced MIP has 4679 rows, 3735 columns, and 20579 nonzeros.
Reduced MIP has 3735 binaries, 0 generals, 0 SOSs, and 0 indicators.
Presolve time = 0.07 sec. (39.86 ticks)
Probing time = 0.02 sec. (10.06 ticks)
Tried aggregator 1 time.
Detecting symmetries...
MIP Presolve eliminated 1 rows and 1 columns.
Reduced MIP has 4678 rows, 3733 columns, and 20575 nonzeros.
Reduced MIP has 3733 binaries, 0 generals, 0 SOSs, and 0 indicators.
Presolve time = 0.03 sec. (20.73 ticks)
Probing time = 0.01 sec. (4.61 ticks)
Clique table members: 14370.
MIP emphasis: balance optimality and feasibility.
MIP search method: dynamic search.
Parallel mode: none, using 1 thread.
Root relaxation solution time = 0.03 sec. (19.12 ticks)

        Nodes                                         Cuts/
   Node  Left     Objective  IInf  Best Integer    Best Bound    ItCnt     Gap

*     0+    0                            0.0000      748.0000              --- 
      0     0      748.0000   983        0.0000      748.0000      386     --- 
*     0+    0                           56.0000      748.0000              --- 
      0     0      122.0000  1317       56.0000    Cuts: 1269     6808  117.86%
      0     0       86.0000  1249       56.0000     Cuts: 229    10467   53.57%
      0     0       86.0000  1388       56.0000      Cuts: 51    12996   53.57%
      0     0       86.0000   844       56.0000   ZeroHalf: 1    12997   53.57%
      0     0       86.0000  1283       56.0000     Cuts: 105    15105   53.57%
Detecting symmetries...
Detecting symmetries...
      0     2       86.0000   889       56.0000       86.0000    15105   53.57%
Elapsed time = 12.28 sec. (8972.74 ticks, tree = 0.01 MB, solutions = 2)
      1     3       86.0000  1158       56.0000       86.0000    29172   53.57%
      2     4       86.0000  1244       56.0000       86.0000    32468   53.57%
      3     5       86.0000  1191       56.0000       86.0000    37648   53.57%
      5     7       86.0000  1107       56.0000       86.0000    43249   53.57%
      6     8       84.9973  1241       56.0000       86.0000    53081   53.57%
      7     9       86.0000  1154       56.0000       86.0000    55367   53.57%
      8    10       86.0000   966       56.0000       86.0000    55916   53.57%
     10    12       86.0000   997       56.0000       86.0000    56124   53.57%
     14    16       86.0000   843       56.0000       86.0000    57678   53.57%
     20    22       84.0000  1124       56.0000       86.0000    61253   53.57%
Elapsed time = 27.29 sec. (20648.01 ticks, tree = 0.66 MB, solutions = 2)
     54    50       86.0000   729       56.0000       86.0000    69583   53.57%
     66    62       85.7500   404       56.0000       86.0000    76668   53.57%
     77    67    infeasible             56.0000       86.0000    79811   53.57%
     90    72       84.0000   288       56.0000       86.0000    82388   53.57%
    105    77       86.0000   365       56.0000       86.0000    85746   53.57%
*   121    83      integral     0       72.0000       86.0000    88013   19.44%
    124    86       86.0000    98       72.0000       86.0000    88415   19.44%
    155    87       85.9989   421       72.0000       86.0000    91820   19.44%
*   170+   68                           80.0000       86.0000             7.50%
*   179    47      integral     0       84.0000       86.0000    94275    2.38%
    180    45        cutoff             84.0000       86.0000    94365    2.38%
    219    64        cutoff             84.0000       86.0000    97461    2.38%
    253    58        cutoff             84.0000       86.0000   100719    2.38%
Elapsed time = 41.88 sec. (31343.84 ticks, tree = 1.61 MB, solutions = 5)
    340    75        cutoff             84.0000       86.0000   107190    2.38%
    410    92       86.0000   102       84.0000       86.0000   112078    2.38%
    445    95       86.0000   345       84.0000       86.0000   115543    2.38%
    518   111       85.5818   233       84.0000       86.0000   120552    2.38%
    620   137        cutoff             84.0000       86.0000   125871    2.38%
    673   152       86.0000   302       84.0000       86.0000   131501    2.38%
    738   173       86.0000   426       84.0000       86.0000   137267    2.38%
    785   187        cutoff             84.0000       86.0000   142907    2.38%
    835   193       85.9752   361       84.0000       86.0000   148581    2.38%
    851   195        cutoff             84.0000       86.0000   153726    2.38%
Elapsed time = 55.45 sec. (41190.39 ticks, tree = 3.16 MB, solutions = 5)
    865   198       86.0000   522       84.0000       86.0000   158139    2.38%
*   916     1      integral     0       86.0000       86.0000   162901    0.00%

GUB cover cuts applied:  23
Clique cuts applied:  52
Cover cuts applied:  1108
Implied bound cuts applied:  3
Zero-half cuts applied:  42
Gomory fractional cuts applied:  232

Root node processing (before b&c):
  Real time             =   12.23 sec. (8942.17 ticks)
Sequential b&c:
  Real time             =   46.08 sec. (34100.07 ticks)
                          ------------
Total (root+branch&cut) =   58.31 sec. (43042.25 ticks)
Solution is feasible.

---------------------
@@@ MIP_optimal
>>> Benchmark mc2024_track1_153.cnf k 2 OPT 86 TimeCost 103.93712759017944 TimeSolve 58.564640045166016 TimeRead 0.15723609924316406 TimeTrans 45.215251445770264
